NAME : in_house_9_11
TYPE : TSP
DIMENSION : 9
EDGE_WEIGHT_TYPE : EXPLICIT
EDGE_WEIGHT_FORMAT : UPPER_ROW
COMMENT : INVERSION_SHIFT=9
EDGE_WEIGHT_SECTION
53
78
41
16
69
35
39
36
63
13
7
8
65
66
20
22
59
4
36
19
38
11
50
70
79
53
59
69
11
77
49
67
58
42
39
36
